c WARNING: for repeatability, setting FPU to use double precision
d VARIABLES            128026       
d CONSTRAINTS          541161       
c ============================[ Problem Statistics ]=============================
c |                                                                             |
c |  Number of variables:        128026                                         |
c |  Number of clauses:          541161                                         |
c |  Parse time:                   0.08 s                                       |
c |                                                                             |
c ============================[ Search Statistics ]==============================
c | Conflicts |          ORIGINAL         |          LEARNT          | Progress |
c |           |    Vars  Clauses Literals |    Limit  Clauses Lit/Cl |          |
c ===============================================================================
c |       100 |  101460   473715  1150893 |   173695      100     25 | 20.750 % |
c |       250 |  101460   473715  1150893 |   191065      250     24 | 20.750 % |
c |       475 |  101460   473715  1150893 |   210171      475     22 | 20.750 % |
c |       812 |  101460   473715  1150893 |   231188      812     31 | 20.750 % |
c |      1318 |  101460   473715  1150893 |   254307     1318     31 | 20.750 % |
c |      2077 |  101460   473715  1150893 |   279738     2077     30 | 20.750 % |
c |      3216 |  101460   473715  1150893 |   307712     3216     29 | 20.750 % |
c |      4924 |  101460   473715  1150893 |   338483     4924     27 | 20.750 % |
c ===============================================================================
c restarts              : 29
c conflicts             : 5558           (4678 /sec)
c decisions             : 32142          (0.00 % random) (27054 /sec)
c propagations          : 8130842        (6843717 /sec)
c conflict literals     : 143270         (20.30 % deleted)
d RESTARTS             29
d FAILURES             5558         
d NODES                32142        
d BACKTRACKS           32142        
d PROPAGATIONS         8130842      
d NOGOODSIZE           25.78 
d MEMORY               46.00 
d TIME                 1.18807 

s UNSATISFIABLE
